p cnf 200 1110
-101 -27 0
-101 -36 0
-101 44 0
-101 -62 0
-101 72 0
-101 -97 0
-101 -15 0
-101 60 0
-101 -25 0
-101 -29 0
101 27 36 -44 62 -72 97 15 -60 25 29 0
-102 6 0
-102 97 0
-102 18 0
-102 -27 0
-102 -20 0
-102 42 0
-102 66 0
-102 -48 0
-102 -100 0
-102 -72 0
102 -6 -97 -18 27 20 -42 -66 48 100 72 0
-103 11 0
-103 -40 0
-103 -41 0
-103 80 0
-103 81 0
-103 -67 0
-103 -68 0
-103 -83 0
-103 23 0
-103 64 0
103 -11 40 41 -80 -81 67 68 83 -23 -64 0
-104 65 0
-104 67 0
-104 46 0
-104 8 0
-104 6 0
-104 51 0
-104 -47 0
-104 92 0
-104 57 0
-104 -34 0
104 -65 -67 -46 -8 -6 -51 47 -92 -57 34 0
-105 56 0
-105 10 0
-105 -38 0
-105 39 0
-105 -12 0
-105 16 0
-105 18 0
-105 -30 0
-105 -98 0
-105 13 0
105 -56 -10 38 -39 12 -16 -18 30 98 -13 0
-106 -76 0
-106 62 0
-106 69 0
-106 -49 0
-106 32 0
-106 20 0
-106 42 0
-106 28 0
-106 34 0
-106 66 0
106 76 -62 -69 49 -32 -20 -42 -28 -34 -66 0
-107 -52 0
-107 -67 0
-107 55 0
-107 -9 0
-107 -94 0
-107 -68 0
-107 84 0
-107 21 0
-107 44 0
-107 -38 0
107 52 67 -55 9 94 68 -84 -21 -44 38 0
-108 -68 0
-108 48 0
-108 66 0
-108 -27 0
-108 -46 0
-108 91 0
-108 -83 0
-108 -36 0
-108 24 0
-108 51 0
108 68 -48 -66 27 46 -91 83 36 -24 -51 0
-109 -23 0
-109 16 0
-109 25 0
-109 68 0
-109 13 0
-109 -52 0
-109 -19 0
-109 97 0
-109 41 0
-109 -60 0
109 23 -16 -25 -68 -13 52 19 -97 -41 60 0
-110 -16 0
-110 58 0
-110 18 0
-110 -68 0
-110 -1 0
-110 -80 0
-110 -45 0
-110 92 0
-110 66 0
-110 72 0
110 16 -58 -18 68 1 80 45 -92 -66 -72 0
101 102 103 104 105 106 107 108 109 110 0
-111 -26 0
-111 -51 0
-111 60 0
-111 -61 0
-111 41 0
-111 84 0
-111 11 0
-111 -37 0
-111 48 0
-111 -90 0
111 26 51 -60 61 -41 -84 -11 37 -48 90 0
-112 -46 0
-112 72 0
-112 -9 0
-112 -93 0
-112 4 0
-112 25 0
-112 17 0
-112 53 0
-112 -28 0
-112 -11 0
112 46 -72 9 93 -4 -25 -17 -53 28 11 0
-113 12 0
-113 -3 0
-113 64 0
-113 -50 0
-113 -24 0
-113 -5 0
-113 10 0
-113 -49 0
-113 -41 0
-113 37 0
113 -12 3 -64 50 24 5 -10 49 41 -37 0
-114 32 0
-114 6 0
-114 -40 0
-114 -98 0
-114 -55 0
-114 -8 0
-114 7 0
-114 25 0
-114 62 0
-114 56 0
114 -32 -6 40 98 55 8 -7 -25 -62 -56 0
-115 5 0
-115 -25 0
-115 69 0
-115 -15 0
-115 -80 0
-115 -91 0
-115 86 0
-115 -29 0
-115 -22 0
-115 -34 0
115 -5 25 -69 15 80 91 -86 29 22 34 0
-116 82 0
-116 57 0
-116 -22 0
-116 72 0
-116 -70 0
-116 38 0
-116 -65 0
-116 62 0
-116 66 0
-116 87 0
116 -82 -57 22 -72 70 -38 65 -62 -66 -87 0
-117 89 0
-117 -91 0
-117 -99 0
-117 -59 0
-117 11 0
-117 -16 0
-117 34 0
-117 17 0
-117 46 0
-117 2 0
117 -89 91 99 59 -11 16 -34 -17 -46 -2 0
-118 42 0
-118 12 0
-118 14 0
-118 11 0
-118 57 0
-118 -100 0
-118 -49 0
-118 -84 0
-118 -31 0
-118 -43 0
118 -42 -12 -14 -11 -57 100 49 84 31 43 0
-119 68 0
-119 34 0
-119 -61 0
-119 52 0
-119 43 0
-119 83 0
-119 -99 0
-119 -95 0
-119 48 0
-119 89 0
119 -68 -34 61 -52 -43 -83 99 95 -48 -89 0
-120 -99 0
-120 -34 0
-120 -76 0
-120 -95 0
-120 -26 0
-120 5 0
-120 -29 0
-120 -66 0
-120 97 0
-120 -70 0
120 99 34 76 95 26 -5 29 66 -97 70 0
111 112 113 114 115 116 117 118 119 120 0
-121 65 0
-121 -25 0
-121 -77 0
-121 -71 0
-121 34 0
-121 48 0
-121 21 0
-121 -52 0
-121 -70 0
-121 59 0
121 -65 25 77 71 -34 -48 -21 52 70 -59 0
-122 17 0
-122 16 0
-122 6 0
-122 -51 0
-122 -34 0
-122 96 0
-122 -83 0
-122 24 0
-122 -73 0
-122 -81 0
122 -17 -16 -6 51 34 -96 83 -24 73 81 0
-123 -80 0
-123 -49 0
-123 74 0
-123 28 0
-123 90 0
-123 75 0
-123 -14 0
-123 -89 0
-123 -13 0
-123 -53 0
123 80 49 -74 -28 -90 -75 14 89 13 53 0
-124 5 0
-124 35 0
-124 -85 0
-124 -100 0
-124 45 0
-124 90 0
-124 10 0
-124 61 0
-124 80 0
-124 83 0
124 -5 -35 85 100 -45 -90 -10 -61 -80 -83 0
-125 -42 0
-125 -22 0
-125 -13 0
-125 43 0
-125 70 0
-125 56 0
-125 59 0
-125 -79 0
-125 25 0
-125 -39 0
125 42 22 13 -43 -70 -56 -59 79 -25 39 0
-126 -51 0
-126 41 0
-126 23 0
-126 -75 0
-126 30 0
-126 97 0
-126 -82 0
-126 -85 0
-126 -72 0
-126 4 0
126 51 -41 -23 75 -30 -97 82 85 72 -4 0
-127 37 0
-127 -51 0
-127 -50 0
-127 -69 0
-127 27 0
-127 43 0
-127 -60 0
-127 -70 0
-127 -8 0
-127 -81 0
127 -37 51 50 69 -27 -43 60 70 8 81 0
-128 -55 0
-128 -82 0
-128 20 0
-128 -79 0
-128 -80 0
-128 10 0
-128 -77 0
-128 -52 0
-128 95 0
-128 39 0
128 55 82 -20 79 80 -10 77 52 -95 -39 0
-129 24 0
-129 -21 0
-129 -65 0
-129 -37 0
-129 -20 0
-129 53 0
-129 57 0
-129 -63 0
-129 85 0
-129 -18 0
129 -24 21 65 37 20 -53 -57 63 -85 18 0
-130 -22 0
-130 -88 0
-130 -82 0
-130 41 0
-130 -30 0
-130 -79 0
-130 -28 0
-130 -69 0
-130 -68 0
-130 59 0
130 22 88 82 -41 30 79 28 69 68 -59 0
121 122 123 124 125 126 127 128 129 130 0
-131 -52 0
-131 83 0
-131 74 0
-131 -91 0
-131 23 0
-131 -53 0
-131 -5 0
-131 99 0
-131 81 0
-131 56 0
131 52 -83 -74 91 -23 53 5 -99 -81 -56 0
-132 -5 0
-132 43 0
-132 -33 0
-132 -92 0
-132 -41 0
-132 -37 0
-132 75 0
-132 9 0
-132 -23 0
-132 67 0
132 5 -43 33 92 41 37 -75 -9 23 -67 0
-133 -58 0
-133 -27 0
-133 -73 0
-133 9 0
-133 -99 0
-133 77 0
-133 -38 0
-133 -72 0
-133 48 0
-133 -81 0
133 58 27 73 -9 99 -77 38 72 -48 81 0
-134 -1 0
-134 46 0
-134 -70 0
-134 34 0
-134 92 0
-134 7 0
-134 -83 0
-134 64 0
-134 35 0
-134 5 0
134 1 -46 70 -34 -92 -7 83 -64 -35 -5 0
-135 12 0
-135 36 0
-135 -74 0
-135 -92 0
-135 -67 0
-135 81 0
-135 98 0
-135 22 0
-135 26 0
-135 -27 0
135 -12 -36 74 92 67 -81 -98 -22 -26 27 0
-136 -95 0
-136 -27 0
-136 26 0
-136 -7 0
-136 74 0
-136 78 0
-136 -32 0
-136 40 0
-136 21 0
-136 -10 0
136 95 27 -26 7 -74 -78 32 -40 -21 10 0
-137 -62 0
-137 -68 0
-137 14 0
-137 -25 0
-137 -22 0
-137 -24 0
-137 -51 0
-137 -60 0
-137 30 0
-137 67 0
137 62 68 -14 25 22 24 51 60 -30 -67 0
-138 24 0
-138 -88 0
-138 86 0
-138 99 0
-138 -7 0
-138 26 0
-138 -56 0
-138 -53 0
-138 -14 0
-138 100 0
138 -24 88 -86 -99 7 -26 56 53 14 -100 0
-139 -63 0
-139 -77 0
-139 -52 0
-139 69 0
-139 43 0
-139 59 0
-139 60 0
-139 -32 0
-139 18 0
-139 -19 0
139 63 77 52 -69 -43 -59 -60 32 -18 19 0
-140 -20 0
-140 21 0
-140 50 0
-140 85 0
-140 6 0
-140 42 0
-140 -48 0
-140 -5 0
-140 -30 0
-140 -34 0
140 20 -21 -50 -85 -6 -42 48 5 30 34 0
131 132 133 134 135 136 137 138 139 140 0
-141 -61 0
-141 75 0
-141 -85 0
-141 40 0
-141 -97 0
-141 -27 0
-141 29 0
-141 -99 0
-141 22 0
-141 -23 0
141 61 -75 85 -40 97 27 -29 99 -22 23 0
-142 97 0
-142 78 0
-142 77 0
-142 93 0
-142 96 0
-142 -49 0
-142 -13 0
-142 -52 0
-142 -92 0
-142 -58 0
142 -97 -78 -77 -93 -96 49 13 52 92 58 0
-143 -71 0
-143 -81 0
-143 40 0
-143 6 0
-143 -60 0
-143 -75 0
-143 -62 0
-143 25 0
-143 78 0
-143 15 0
143 71 81 -40 -6 60 75 62 -25 -78 -15 0
-144 54 0
-144 37 0
-144 31 0
-144 39 0
-144 -45 0
-144 42 0
-144 24 0
-144 -78 0
-144 7 0
-144 -95 0
144 -54 -37 -31 -39 45 -42 -24 78 -7 95 0
-145 -71 0
-145 -86 0
-145 21 0
-145 -36 0
-145 25 0
-145 -77 0
-145 46 0
-145 -70 0
-145 75 0
-145 -32 0
145 71 86 -21 36 -25 77 -46 70 -75 32 0
-146 13 0
-146 -9 0
-146 -33 0
-146 -62 0
-146 97 0
-146 24 0
-146 98 0
-146 -78 0
-146 -40 0
-146 -35 0
146 -13 9 33 62 -97 -24 -98 78 40 35 0
-147 -49 0
-147 -59 0
-147 45 0
-147 -76 0
-147 90 0
-147 51 0
-147 -69 0
-147 -6 0
-147 41 0
-147 -21 0
147 49 59 -45 76 -90 -51 69 6 -41 21 0
-148 -56 0
-148 81 0
-148 70 0
-148 93 0
-148 -24 0
-148 3 0
-148 46 0
-148 43 0
-148 -49 0
-148 -31 0
148 56 -81 -70 -93 24 -3 -46 -43 49 31 0
-149 68 0
-149 11 0
-149 59 0
-149 -86 0
-149 21 0
-149 -90 0
-149 7 0
-149 -100 0
-149 -98 0
-149 -39 0
149 -68 -11 -59 86 -21 90 -7 100 98 39 0
-150 -78 0
-150 -59 0
-150 82 0
-150 35 0
-150 -47 0
-150 36 0
-150 -60 0
-150 -81 0
-150 -69 0
-150 27 0
150 78 59 -82 -35 47 -36 60 81 69 -27 0
141 142 143 144 145 146 147 148 149 150 0
-151 -62 0
-151 -10 0
-151 93 0
-151 -32 0
-151 1 0
-151 41 0
-151 -91 0
-151 74 0
-151 13 0
-151 4 0
151 62 10 -93 32 -1 -41 91 -74 -13 -4 0
-152 -86 0
-152 -89 0
-152 -24 0
-152 -23 0
-152 80 0
-152 60 0
-152 41 0
-152 -50 0
-152 56 0
-152 19 0
152 86 89 24 23 -80 -60 -41 50 -56 -19 0
-153 -76 0
-153 49 0
-153 -21 0
-153 -47 0
-153 44 0
-153 20 0
-153 -65 0
-153 -34 0
-153 -33 0
-153 4 0
153 76 -49 21 47 -44 -20 65 34 33 -4 0
-154 -72 0
-154 -81 0
-154 -6 0
-154 63 0
-154 38 0
-154 43 0
-154 -11 0
-154 -60 0
-154 99 0
-154 32 0
154 72 81 6 -63 -38 -43 11 60 -99 -32 0
-155 -71 0
-155 -100 0
-155 -22 0
-155 75 0
-155 -28 0
-155 -74 0
-155 41 0
-155 95 0
-155 -89 0
-155 43 0
155 71 100 22 -75 28 74 -41 -95 89 -43 0
-156 71 0
-156 -94 0
-156 -98 0
-156 -45 0
-156 -2 0
-156 68 0
-156 -15 0
-156 4 0
-156 12 0
-156 17 0
156 -71 94 98 45 2 -68 15 -4 -12 -17 0
-157 -23 0
-157 -4 0
-157 97 0
-157 -42 0
-157 -35 0
-157 -36 0
-157 10 0
-157 7 0
-157 -92 0
-157 -66 0
157 23 4 -97 42 35 36 -10 -7 92 66 0
-158 60 0
-158 32 0
-158 20 0
-158 4 0
-158 3 0
-158 -43 0
-158 -37 0
-158 -99 0
-158 -42 0
-158 -58 0
158 -60 -32 -20 -4 -3 43 37 99 42 58 0
-159 -35 0
-159 43 0
-159 -81 0
-159 51 0
-159 -62 0
-159 -85 0
-159 70 0
-159 10 0
-159 97 0
-159 67 0
159 35 -43 81 -51 62 85 -70 -10 -97 -67 0
-160 -14 0
-160 -61 0
-160 -16 0
-160 11 0
-160 -74 0
-160 64 0
-160 -38 0
-160 56 0
-160 -7 0
-160 -97 0
160 14 61 16 -11 74 -64 38 -56 7 97 0
151 152 153 154 155 156 157 158 159 160 0
-161 -8 0
-161 -53 0
-161 -15 0
-161 -19 0
-161 82 0
-161 67 0
-161 63 0
-161 -68 0
-161 -57 0
-161 -13 0
161 8 53 15 19 -82 -67 -63 68 57 13 0
-162 -87 0
-162 -4 0
-162 -86 0
-162 76 0
-162 61 0
-162 84 0
-162 -19 0
-162 -75 0
-162 -56 0
-162 -77 0
162 87 4 86 -76 -61 -84 19 75 56 77 0
-163 -61 0
-163 -24 0
-163 -98 0
-163 25 0
-163 -70 0
-163 -57 0
-163 86 0
-163 71 0
-163 12 0
-163 -76 0
163 61 24 98 -25 70 57 -86 -71 -12 76 0
-164 -4 0
-164 -46 0
-164 -44 0
-164 -67 0
-164 -75 0
-164 -54 0
-164 92 0
-164 52 0
-164 -1 0
-164 9 0
164 4 46 44 67 75 54 -92 -52 1 -9 0
-165 -92 0
-165 90 0
-165 31 0
-165 82 0
-165 72 0
-165 -81 0
-165 76 0
-165 77 0
-165 20 0
-165 57 0
165 92 -90 -31 -82 -72 81 -76 -77 -20 -57 0
-166 82 0
-166 -81 0
-166 -22 0
-166 -55 0
-166 41 0
-166 83 0
-166 51 0
-166 -26 0
-166 -61 0
-166 -70 0
166 -82 81 22 55 -41 -83 -51 26 61 70 0
-167 42 0
-167 3 0
-167 -63 0
-167 89 0
-167 78 0
-167 81 0
-167 92 0
-167 54 0
-167 68 0
-167 25 0
167 -42 -3 63 -89 -78 -81 -92 -54 -68 -25 0
-168 36 0
-168 -50 0
-168 -86 0
-168 -54 0
-168 64 0
-168 89 0
-168 -13 0
-168 93 0
-168 -44 0
-168 -74 0
168 -36 50 86 54 -64 -89 13 -93 44 74 0
-169 99 0
-169 -14 0
-169 -93 0
-169 5 0
-169 -9 0
-169 -77 0
-169 -91 0
-169 87 0
-169 46 0
-169 98 0
169 -99 14 93 -5 9 77 91 -87 -46 -98 0
-170 60 0
-170 -21 0
-170 1 0
-170 97 0
-170 10 0
-170 -85 0
-170 -23 0
-170 29 0
-170 49 0
-170 -71 0
170 -60 21 -1 -97 -10 85 23 -29 -49 71 0
161 162 163 164 165 166 167 168 169 170 0
-171 -62 0
-171 58 0
-171 2 0
-171 -61 0
-171 -54 0
-171 95 0
-171 -73 0
-171 -20 0
-171 -99 0
-171 8 0
171 62 -58 -2 61 54 -95 73 20 99 -8 0
-172 -14 0
-172 -91 0
-172 95 0
-172 -6 0
-172 36 0
-172 -25 0
-172 -48 0
-172 -16 0
-172 30 0
-172 -21 0
172 14 91 -95 6 -36 25 48 16 -30 21 0
-173 -32 0
-173 55 0
-173 79 0
-173 33 0
-173 14 0
-173 -19 0
-173 -36 0
-173 -42 0
-173 43 0
-173 -72 0
173 32 -55 -79 -33 -14 19 36 42 -43 72 0
-174 77 0
-174 -70 0
-174 67 0
-174 50 0
-174 -91 0
-174 -8 0
-174 39 0
-174 -17 0
-174 -62 0
-174 56 0
174 -77 70 -67 -50 91 8 -39 17 62 -56 0
-175 89 0
-175 -100 0
-175 56 0
-175 -4 0
-175 -15 0
-175 -81 0
-175 9 0
-175 -43 0
-175 -86 0
-175 -79 0
175 -89 100 -56 4 15 81 -9 43 86 79 0
-176 9 0
-176 52 0
-176 12 0
-176 -90 0
-176 88 0
-176 -35 0
-176 -50 0
-176 -7 0
-176 -36 0
-176 11 0
176 -9 -52 -12 90 -88 35 50 7 36 -11 0
-177 -90 0
-177 33 0
-177 69 0
-177 -15 0
-177 -26 0
-177 -8 0
-177 28 0
-177 -73 0
-177 -58 0
-177 97 0
177 90 -33 -69 15 26 8 -28 73 58 -97 0
-178 -72 0
-178 88 0
-178 13 0
-178 43 0
-178 19 0
-178 -77 0
-178 17 0
-178 4 0
-178 1 0
-178 26 0
178 72 -88 -13 -43 -19 77 -17 -4 -1 -26 0
-179 38 0
-179 -33 0
-179 -51 0
-179 -2 0
-179 58 0
-179 -57 0
-179 93 0
-179 -7 0
-179 15 0
-179 -50 0
179 -38 33 51 2 -58 57 -93 7 -15 50 0
-180 -73 0
-180 10 0
-180 23 0
-180 -77 0
-180 1 0
-180 -12 0
-180 79 0
-180 66 0
-180 80 0
-180 -35 0
180 73 -10 -23 77 -1 12 -79 -66 -80 35 0
171 172 173 174 175 176 177 178 179 180 0
-181 27 0
-181 34 0
-181 -75 0
-181 -78 0
-181 -94 0
-181 67 0
-181 -70 0
-181 40 0
-181 35 0
-181 93 0
181 -27 -34 75 78 94 -67 70 -40 -35 -93 0
-182 -29 0
-182 73 0
-182 -13 0
-182 79 0
-182 48 0
-182 84 0
-182 -21 0
-182 27 0
-182 -8 0
-182 15 0
182 29 -73 13 -79 -48 -84 21 -27 8 -15 0
-183 89 0
-183 -98 0
-183 -6 0
-183 71 0
-183 -33 0
-183 -30 0
-183 62 0
-183 85 0
-183 57 0
-183 55 0
183 -89 98 6 -71 33 30 -62 -85 -57 -55 0
-184 -1 0
-184 49 0
-184 -88 0
-184 -73 0
-184 -47 0
-184 34 0
-184 98 0
-184 -19 0
-184 -38 0
-184 -91 0
184 1 -49 88 73 47 -34 -98 19 38 91 0
-185 -14 0
-185 86 0
-185 -76 0
-185 -12 0
-185 -33 0
-185 34 0
-185 88 0
-185 -90 0
-185 -85 0
-185 -39 0
185 14 -86 76 12 33 -34 -88 90 85 39 0
-186 92 0
-186 18 0
-186 -70 0
-186 13 0
-186 52 0
-186 -86 0
-186 -64 0
-186 21 0
-186 -10 0
-186 -6 0
186 -92 -18 70 -13 -52 86 64 -21 10 6 0
-187 -10 0
-187 -81 0
-187 -99 0
-187 32 0
-187 59 0
-187 -47 0
-187 92 0
-187 55 0
-187 -53 0
-187 -41 0
187 10 81 99 -32 -59 47 -92 -55 53 41 0
-188 89 0
-188 52 0
-188 -60 0
-188 2 0
-188 -19 0
-188 -99 0
-188 -11 0
-188 -91 0
-188 -31 0
-188 -10 0
188 -89 -52 60 -2 19 99 11 91 31 10 0
-189 63 0
-189 -79 0
-189 -29 0
-189 -18 0
-189 -38 0
-189 -7 0
-189 -34 0
-189 31 0
-189 97 0
-189 62 0
189 -63 79 29 18 38 7 34 -31 -97 -62 0
-190 97 0
-190 64 0
-190 25 0
-190 -86 0
-190 -33 0
-190 -76 0
-190 61 0
-190 -60 0
-190 92 0
-190 -46 0
190 -97 -64 -25 86 33 76 -61 60 -92 46 0
181 182 183 184 185 186 187 188 189 190 0
-191 -78 0
-191 -2 0
-191 -25 0
-191 -57 0
-191 -76 0
-191 12 0
-191 -39 0
-191 98 0
-191 -42 0
-191 43 0
191 78 2 25 57 76 -12 39 -98 42 -43 0
-192 13 0
-192 39 0
-192 -2 0
-192 -97 0
-192 -72 0
-192 18 0
-192 8 0
-192 -12 0
-192 79 0
-192 10 0
192 -13 -39 2 97 72 -18 -8 12 -79 -10 0
-193 -88 0
-193 -18 0
-193 14 0
-193 -22 0
-193 89 0
-193 -42 0
-193 -25 0
-193 50 0
-193 23 0
-193 -24 0
193 88 18 -14 22 -89 42 25 -50 -23 24 0
-194 -44 0
-194 65 0
-194 -93 0
-194 16 0
-194 9 0
-194 37 0
-194 -39 0
-194 -79 0
-194 -68 0
-194 -21 0
194 44 -65 93 -16 -9 -37 39 79 68 21 0
-195 -89 0
-195 92 0
-195 -62 0
-195 -98 0
-195 -93 0
-195 -48 0
-195 -26 0
-195 41 0
-195 -1 0
-195 90 0
195 89 -92 62 98 93 48 26 -41 1 -90 0
-196 -34 0
-196 -18 0
-196 62 0
-196 75 0
-196 -66 0
-196 -16 0
-196 -89 0
-196 -14 0
-196 -64 0
-196 82 0
196 34 18 -62 -75 66 16 89 14 64 -82 0
-197 90 0
-197 16 0
-197 54 0
-197 74 0
-197 51 0
-197 73 0
-197 38 0
-197 2 0
-197 -45 0
-197 29 0
197 -90 -16 -54 -74 -51 -73 -38 -2 45 -29 0
-198 -81 0
-198 9 0
-198 22 0
-198 76 0
-198 55 0
-198 -46 0
-198 -15 0
-198 42 0
-198 64 0
-198 69 0
198 81 -9 -22 -76 -55 46 15 -42 -64 -69 0
-199 32 0
-199 34 0
-199 -25 0
-199 -95 0
-199 -22 0
-199 87 0
-199 -99 0
-199 -74 0
-199 -36 0
-199 85 0
199 -32 -34 25 95 22 -87 99 74 36 -85 0
-200 35 0
-200 14 0
-200 90 0
-200 20 0
-200 -4 0
-200 5 0
-200 -59 0
-200 -85 0
-200 67 0
-200 79 0
200 -35 -14 -90 -20 4 -5 59 85 -67 -79 0
191 192 193 194 195 196 197 198 199 200 0
